// --------------------------------------------------------------------------
// Licensed Materials - Property of IBM
//
// 5725-A06 5725-A29 5724-Y48 5724-Y49 5724-Y54 5724-Y55
// Copyright IBM Corporation 1998, 2013. All Rights Reserved.
//
// Note to U.S. Government Users Restricted Rights:
// Use, duplication or disclosure restricted by GSA ADP Schedule
// Contract with IBM Corp.
// --------------------------------------------------------------------------

Products = { "gas" "chloride" };
Components = { "nitrogen" "hydrogen" "chlorine" };

Demand = [ [1 3 0] [1 4 1] ];
Profit = [30 40];
Stock = [50 180 40];
